13
Lattice="15.0 0.0 0.0 0.0 15.0 0.0 0.0 0.0 15.0" Properties=species:S:1:pos:R:3 index=10 gp_energy=-1395.8537494040836 gp_uncertainty=2.0311660586959377 success=F pbc="F F F"
Pt       7.82386663      10.28481210       8.03347237
Pt       8.46979894       8.86206340       6.20570359
Pt       5.44481637       6.24026801       8.58737836
Pd       9.31982946       6.99842073       9.86187433
Pd       6.72008838       7.44917208       5.12200147
Ag       6.95464819       8.25723768      10.27196360
Ag       4.48101660       7.03507886      10.95429774
Ag       4.65028446       8.95969328       8.78298501
Ru       8.78872336       6.43199700       6.13837597
Ru       8.99879749       7.76431816       4.19069216
Ru       8.52904022       5.37276703       8.20233729
Ru       6.24824241       9.09963364       6.90704653
Ru       6.66637586       5.55197129       6.76860007
