33
Lattice="9.84 0.0 0.0 4.92 8.521689973238876 0.0 0.0 0.0 6.0" Properties=species:S:1:pos:R:3 pbc="T T F"
N        6.15000000       2.84056332       0.00000000
C        4.92000000       4.97098582       0.00000000
N        6.15000000       5.68112665       0.00000000
C        3.69000000       7.10140831       0.00000000
C        4.92000000       7.81154914       0.00000000
C        2.46000000       9.23183080       0.00000000
C        3.69000000       9.94197164       0.00000000
N        8.61000000       2.84056332       0.00000000
C        9.84000000       3.55070416       0.00000000
N        8.61000000       5.68112665       0.00000000
C        6.15000000       7.10140831       0.00000000
C        7.38000000       7.81154914       0.00000000
C        4.92000000       9.23183080       0.00000000
C        6.15000000       9.94197164       0.00000000
C       11.07000000       2.84056332       0.00000000
C       12.30000000       3.55070416       0.00000000
C        9.84000000       4.97098582       0.00000000
C       11.07000000       5.68112665       0.00000000
C        8.61000000       7.10140831       0.00000000
C        9.84000000       7.81154914       0.00000000
C        7.38000000       9.23183080       0.00000000
C        8.61000000       9.94197164       0.00000000
C       13.53000000       2.84056332       0.00000000
C       14.76000000       3.55070416       0.00000000
C       12.30000000       4.97098582       0.00000000
C       13.53000000       5.68112665       0.00000000
C       11.07000000       7.10140831       0.00000000
C       12.30000000       7.81154914       0.00000000
C        9.84000000       9.23183080       0.00000000
C       11.07000000       9.94197164       0.00000000
Pt       7.38000000       4.26084499       0.00000000
O        7.35877037       4.51791747       2.81211314
H        7.35877037       5.47791747       2.81211314
