13
Lattice="15.0 0.0 0.0 0.0 15.0 0.0 0.0 0.0 15.0" Properties=species:S:1:pos:R:3:forces:R:3 index=2 gp_energy=-1389.7953534249025 gp_uncertainty=2.591043575773104 success=F energy=-1394.9774405764488 free_energy=-1394.9774405764488 pbc="F F F"
Pt       6.32072895       5.30205382      10.42489566       0.05771315      -0.00525746      -0.05488256
Pt       8.15406539       6.01758507       6.82539797      -0.12423563       0.28910988       0.02678117
Pt       8.24590304       6.61972631       9.17786423      -0.03286738       0.07198482      -0.06056700
Pd       7.13720297      11.47613529       6.53481270       0.00776675      -0.06311121      -0.07696493
Pd       5.01481352       7.18260118       8.95385524      -0.03485432       0.08227035      -0.12438309
Ag       8.42923906       8.93114084       7.09196176       0.35287328       0.07545398       0.09215155
Ag       7.73276083       7.25264921       4.56648212       0.02940539       0.04567594       0.07547633
Ag       3.97493618       5.20321747       7.55829398       0.00137668      -0.16794092      -0.01411861
Ru       6.70742578       7.73062338      10.77776831       0.01417418       0.09725150      -0.21359288
Ru       6.23020137       7.62010755       6.74008350      -0.21618682      -0.30931734       0.28876513
Ru       6.11711943       5.24184390       5.70351515      -0.09948252       0.18460265       0.11023901
Ru       6.35063838       9.45093383       8.90692105       0.30157450      -0.25407788      -0.00744128
Ru       8.72931894       8.96856757       9.78592127      -0.25725726      -0.04664433      -0.04146285
13
Lattice="15.0 0.0 0.0 0.0 15.0 0.0 0.0 0.0 15.0" Properties=species:S:1:pos:R:3:forces:R:3 index=2 gp_energy=-1390.443525879384 gp_uncertainty=2.6217079431315247 success=F energy=-1395.686941765647 free_energy=-1395.686941765647 pbc="F F F"
Pt       5.04163082       9.61470112       7.68103413       0.05888695      -0.01241328      -0.08676490
Pt       9.27821576       9.15391299       7.07308637      -0.06120650      -0.03878572      -0.00150737
Pt       5.02008727       5.60555306       7.19650185      -0.03627809       0.03687694      -0.04556821
Pd      10.19725621       9.64361350       4.68782139       0.00900110      -0.02578648      -0.00057163
Pd       8.08020960       7.92837714       4.77655145      -0.01580198       0.04165090      -0.01438034
Ag       5.85933797       6.56779842      10.44389237       0.02040559       0.00491936       0.03579134
Ag       7.27432467       7.76793175       7.76705258       0.03901533      -0.05718033       0.03663712
Ag       6.67071320       9.52361087      10.77507600      -0.02748170       0.00855872      -0.00047154
Ru       5.33890441       7.77955691       5.97739783      -0.01359613       0.05307193       0.05481832
Ru       7.21360425       5.20258003       8.31018013       0.02084129       0.00638327      -0.01267362
Ru       7.06974485       5.83206954       5.79269770      -0.00208112      -0.01780793       0.00759408
Ru       9.33463432       5.27288262       6.87724484       0.05047084       0.03021860      -0.00091991
Ru       7.00404952       9.77611940       6.13110662      -0.04217559      -0.02970599       0.02801667
13
Lattice="15.0 0.0 0.0 0.0 15.0 0.0 0.0 0.0 15.0" Properties=species:S:1:pos:R:3:forces:R:3 index=2 gp_energy=-1390.4786696199997 gp_uncertainty=2.5107696736881464 success=F energy=-1395.500208967376 free_energy=-1395.500208967376 pbc="F F F"
Pt       9.10447301       8.97850084       6.22260122       0.13098075      -0.09600422       0.10799633
Pt       8.55105280       5.39599258       9.51864387      -0.06289071       0.02258903      -0.05940527
Pt       6.94972704       8.74892200       5.18304742      -0.08110195      -0.01550446       0.07467745
Pd       8.48012794       6.18965305       5.83095157       0.03091062       0.10507569       0.06444216
Pd       5.70610257       9.05446046       7.28463936       0.06308589      -0.01902759      -0.06853688
Ag       5.45599857       6.32208387       6.14350685      -0.04822680       0.02279057      -0.03382730
Ag      10.51563748       5.03316814       7.51896442       0.02516043       0.15719090       0.03930774
Ag       5.51204727      11.09276050       4.80370564      -0.06126814      -0.01760723      -0.00808643
Ru       6.61433019       5.58862044      11.12330960       0.03705316      -0.04125365      -0.02109057
Ru       9.31068407       7.28831534       8.08576045      -0.03286065      -0.07932011      -0.03385858
Ru       7.41175010       7.68124621       9.83592829      -0.01883129       0.03614820      -0.00729392
Ru       6.24063505       5.72945287       8.55738250       0.03601353       0.04045979       0.00911245
Ru      10.82920121       7.16112421       6.04078012      -0.01802483      -0.11553690      -0.06343718
13
Lattice="15.0 0.0 0.0 0.0 15.0 0.0 0.0 0.0 15.0" Properties=species:S:1:pos:R:3:forces:R:3 index=3 gp_energy=-1383.9277656567772 gp_uncertainty=4.367997868859434 success=F energy=-1392.663761394496 free_energy=-1392.663761394496 pbc="F F F"
Pt       7.40795852       9.39905955       9.48902383       0.02059738      -0.24075954       0.03765891
Pt       8.09664495       8.43200936       7.36362575      -0.09953681      -0.03642888      -0.02231540
Pt       6.10722752       6.58046247       8.67449161       0.31670167       0.26795002       0.08921741
Pd       7.52460193       5.11229147       6.47860064       0.17417257      -0.04853555       0.04314512
Pd       9.98887980       5.36655308       6.42928923       0.14066907       0.18267327       0.03010937
Ag       7.33529283      10.86512024       7.45348591       0.10396300       0.10361983       0.35936073
Ag       6.75197412       9.42248723       5.44438706      -0.03969383      -0.42015407      -0.23104679
Ag       5.66731362       8.87977647       7.75253981      -0.18004104       0.23803387      -0.15182933
Ru      10.88501266       6.91145088       8.23259121      -0.33972447      -0.15229052       0.00352402
Ru       5.40683331       4.02448164       5.64639137      -0.00187589       0.05213392       0.05667132
Ru       2.88273360      12.52586412       6.78893566      -0.02836265       0.02153850      -0.00525407
Ru       9.48636306       7.22688386      10.36853476       0.00521446      -0.12593658      -0.19754131
Ru       8.81086937       5.44689041       8.64188631      -0.07208347       0.15815573      -0.01169998
13
Lattice="15.0 0.0 0.0 0.0 15.0 0.0 0.0 0.0 15.0" Properties=species:S:1:pos:R:3:forces:R:3 index=3 gp_energy=-1391.4344252978703 gp_uncertainty=2.6875592019669288 success=F energy=-1396.8095437018042 free_energy=-1396.8095437018042 pbc="F F F"
Pt       6.19405476       8.36164891       6.85830981      -0.01269288       0.02502829      -0.02295018
Pt       4.86695398       6.99314102       5.39244333      -0.00657959      -0.03552397       0.01090735
Pt      10.17938956       9.53653805      10.57588696      -0.00093438      -0.00231557       0.01746063
Pd       7.61958365       5.90032914       9.92004264       0.03146414       0.00574138      -0.02358293
Pd       6.35537759       9.38587607      10.23750851       0.03395331       0.01404805      -0.02389505
Ag       8.98713496       8.38962615       6.34953239       0.00890701      -0.01672225       0.06495888
Ag       9.92535438       5.71772874       5.64380474      -0.02927667      -0.02022544       0.02089023
Ag       7.61599980      10.18705886       8.16856305      -0.02510160       0.01289397      -0.01808351
Ru       7.87890952       5.33075085       7.44868255       0.00242311       0.00814318      -0.02688361
Ru       9.89518735       6.42582931       8.55536826       0.01477083      -0.00065570      -0.00586011
Ru      10.58652842       8.80973102       8.33083807      -0.00735389       0.01148609       0.00527439
Ru       7.21440215       6.72516152       5.47631010       0.00452318       0.03785447       0.01916919
Ru       8.52432944       8.23219922       9.57432471      -0.01410256      -0.03975250      -0.01740527
13
Lattice="15.0 0.0 0.0 0.0 15.0 0.0 0.0 0.0 15.0" Properties=species:S:1:pos:R:3:forces:R:3 index=3 gp_energy=-1389.7721026694771 gp_uncertainty=3.3323939432724834 success=F energy=-1396.436890556022 free_energy=-1396.436890556022 pbc="F F F"
Pt       9.19717868       6.93675820       6.87090945      -0.03199930      -0.17237011       0.04916003
Pt       9.09282377       8.82653236       8.38542879      -0.07454900       0.06727910       0.13720637
Pt       9.23655048       9.18585060       6.00421212      -0.00187763       0.10762078      -0.08870159
Pd       6.23300527       4.87337917       8.36251688      -0.00642682       0.12375181      -0.13839204
Pd       4.52670262       5.81920193       6.76680084      -0.14812450      -0.02657202       0.06207530
Ag       7.99480612      10.47181281       4.04473336       0.00676901      -0.00527484       0.01143947
Ag       4.56621880       8.38055762       6.89456196       0.02929149      -0.08784175      -0.08656717
Ag       5.90802944       9.22077013       9.27797503       0.08768144      -0.03032674       0.07752900
Ru       6.91388106       6.51928838       6.51915225       0.02503865      -0.01968846      -0.09711876
Ru       4.54513140       7.00477169       9.11023978       0.06215235       0.04917573       0.00249812
Ru       8.11952343       8.64255219      10.54959306      -0.05626134      -0.02228990      -0.02012081
Ru       7.77347948       6.84469257       8.83597358       0.10649103       0.08428109       0.01420142
Ru       6.20201358       8.21799757       4.87072688       0.00181461      -0.06774469       0.07679066
13
Lattice="15.0 0.0 0.0 0.0 15.0 0.0 0.0 0.0 15.0" Properties=species:S:1:pos:R:3:forces:R:3 index=4 gp_energy=-1394.7164654086391 gp_uncertainty=1.6682275248749743 success=F energy=-1398.052920458389 free_energy=-1398.052920458389 pbc="F F F"
Pt       6.30300119       9.01840294       9.29958769       0.01281369       0.11796688       0.09182932
Pt       8.84702023       6.66030556       4.67499561       0.00711247      -0.08458210       0.01872310
Pt       5.03968517       4.85364732       8.50440771       0.06666230      -0.13431787      -0.06514865
Pd       7.89678376      10.30970669       5.67676298      -0.11791074       0.09517658      -0.02758893
Pd      10.55670938       7.58192037       8.81235195      -0.05370155      -0.12975189      -0.00610901
Ag       8.20387442       6.21579913       8.00768935       0.07847915      -0.15712714       0.03741532
Ag       5.99856193       8.94579768       4.53898427       0.10671332      -0.09642428      -0.02197517
Ag       6.64495727       6.16515301       5.65649723      -0.11477200      -0.20387273       0.14816061
Ru       9.08327965       8.77655490       7.24915050      -0.03700740       0.07563609      -0.16646534
Ru       5.28200640       7.11475269       8.44785262       0.15047455       0.22648727      -0.05033726
Ru       4.56514826       7.68301855       6.30700476      -0.13542437       0.03553647      -0.04563230
Ru       8.58806174       8.84455140       3.75250493       0.06432490       0.21276085       0.18408884
Ru       6.73065355       8.49772133       7.02337508      -0.02776430       0.04251186      -0.09696053
13
Lattice="15.0 0.0 0.0 0.0 15.0 0.0 0.0 0.0 15.0" Properties=species:S:1:pos:R:3:forces:R:3 index=4 gp_energy=-1387.9682079638712 gp_uncertainty=3.665730866398607 success=F energy=-1395.2996696966684 free_energy=-1395.2996696966684 pbc="F F F"
Pt      10.23668988       9.02887652       5.77663838      -0.08181231      -0.02789515       0.01905344
Pt       5.85152186       7.60742628       4.70839623      -0.00100017       0.09340236      -0.02062340
Pt       9.31795649       9.83211968       7.85782136      -0.04192915       0.03664599       0.02807482
Pd       6.51614155       7.86175381       7.05728464       0.03654558       0.03771990       0.11254871
Pd       5.08281073       9.88104806       7.33523838       0.00090126      -0.06771712      -0.07274953
Ag      11.09489558      11.39050347       6.63357056       0.03315206      -0.00986895       0.00332159
Ag       4.26016741       5.56216823       4.96867148      -0.00215094      -0.00218205       0.00718677
Ag       3.96901672       7.48572831       6.83426315      -0.00088817       0.02200284      -0.01443178
Ru       6.76757819       9.80599492       5.41501550      -0.01872400      -0.07350767      -0.01028084
Ru       9.50845599       5.68495936       5.80564678      -0.03056438       0.05603251      -0.04321972
Ru       8.61395616       7.60226131       8.64216380       0.07437875      -0.02832719      -0.06566537
Ru       8.26948096       7.77503300       5.10663750       0.04479590      -0.06382959       0.06331096
Ru       7.08286636       9.60712811       8.86992795      -0.01270443       0.02752412      -0.00652565
13
Lattice="15.0 0.0 0.0 0.0 15.0 0.0 0.0 0.0 15.0" Properties=species:S:1:pos:R:3:forces:R:3 index=4 gp_energy=-1389.4565571824523 gp_uncertainty=3.3719817264685554 success=F energy=-1396.2005206353895 free_energy=-1396.2005206353895 pbc="F F F"
Pt      10.31190313       7.71962148       7.88994498       0.06060746       0.03733368       0.10239646
Pt       9.10011732       9.11284848       9.45956480      -0.08338606       0.01184381       0.01939625
Pt       9.10514578       6.70858088       9.72303127      -0.03119786      -0.01963975      -0.03156143
Pd       7.83728998       3.13619467       8.53711277      -0.04332451      -0.02266783      -0.04062332
Pd       8.18059869       8.70224467       7.16438862       0.03163108      -0.01671690       0.00725414
Ag       9.85512764       7.38590093       5.43958451       0.03772413      -0.07555870      -0.09356067
Ag       9.40138640       4.84090130       6.77581725       0.01533474       0.01034871       0.04619004
Ag      10.65325484       9.93519254       6.73596239       0.00341569       0.08214372      -0.09327305
Ru       7.49789113       6.49928145       6.10238494      -0.07374972       0.04541252      -0.03876399
Ru       7.00708924       7.89612104       9.25191032       0.05917743       0.01793673       0.02979921
Ru       8.78304164       9.70543230       4.92990365       0.00787106      -0.05128262       0.07089567
Ru       7.46086567       5.61044343       8.37582131       0.03347942      -0.01372186       0.00538450
Ru       6.42691295       9.74192256       5.69994051      -0.01758287      -0.00543151       0.01646619
13
Lattice="15.0 0.0 0.0 0.0 15.0 0.0 0.0 0.0 15.0" Properties=species:S:1:pos:R:3:forces:R:3 index=5 gp_energy=-1387.8512027533513 gp_uncertainty=3.9476700466357624 success=F energy=-1395.7465428466228 free_energy=-1395.7465428466228 pbc="F F F"
Pt       5.71366457       6.30061010       7.36019700       0.14128083      -0.07713181       0.06028365
Pt       5.93304786       5.42534393       5.08574577       0.38750507      -0.20356827       0.13852067
Pt       8.39352618       4.35324385      10.25425038       0.35180136      -0.15735466       0.29314492
Pd       9.53447757       3.74072307       6.47089773      -0.28517654       0.19994365       0.16124504
Pd      10.92797219       6.99363388       7.96959084      -0.23843935      -0.17329236       0.14400187
Ag       8.68636357      11.15578643       9.21013772       0.00012755      -0.01583518      -0.00394856
Ag       9.07413340       9.12673608       4.42286167      -0.02607625      -0.00406945       0.02167192
Ag       8.56878389      10.40612560       6.71198340      -0.02154677      -0.00972980      -0.02050968
Ru       8.80825949       5.55033266       8.15017548       0.41989855       0.02598212      -0.33597960
Ru       3.84172689       6.45263292       5.77206353      -0.46711249       0.19985941       0.00566132
Ru       7.04010561       4.23403357       6.95730213       0.02433460      -0.03064515      -0.32237937
Ru       9.88703415       6.35235278      10.27175882       0.05487815      -0.05712951       0.07487665
Ru       6.74041510       6.01281800       9.59099305      -0.34147470       0.30297102      -0.21658883
13
Lattice="15.0 0.0 0.0 0.0 15.0 0.0 0.0 0.0 15.0" Properties=species:S:1:pos:R:3:forces:R:3 index=5 gp_energy=-1392.717761769532 gp_uncertainty=2.4784578473554983 success=F energy=-1397.674677464243 free_energy=-1397.674677464243 pbc="F F F"
Pt       5.60480848       8.71117726       6.15270142      -0.00642828      -0.01589488      -0.00951236
Pt       8.84382223       4.24893582       8.43604367      -0.00064891       0.01067776       0.04098880
Pt       7.83521230       9.59288948       5.94443701       0.00355399       0.04263521      -0.00166331
Pd       7.27198986      11.14497326       7.72001558      -0.00701476      -0.02091023       0.01105164
Pd       9.67325683       8.05840964       6.38853057       0.04356966      -0.02481567       0.03214563
Ag       7.26330913       8.74305641       8.98257686      -0.01356283       0.03051974      -0.01105282
Ag       5.61886633       6.60827034      10.20176369      -0.00737527      -0.04312713       0.00932543
Ag      10.08892890       7.66701000       9.16645407       0.00030810      -0.00175811      -0.04334401
Ru       5.96962808       6.81403280       7.61344700      -0.01047502       0.02290299       0.03541513
Ru       7.47032787       7.22549538       5.71503332       0.00159563      -0.00270007      -0.02312113
Ru       9.39755785       9.97114456       7.81050942       0.00983507      -0.01425582       0.00603147
Ru       8.30881416       6.42590069       7.72975817      -0.02385298       0.01326751      -0.04350667
Ru       8.12174147       5.86603084      10.09248979       0.01049560       0.00345869      -0.00275780
13
Lattice="15.0 0.0 0.0 0.0 15.0 0.0 0.0 0.0 15.0" Properties=species:S:1:pos:R:3:forces:R:3 index=5 gp_energy=-1388.6809386438144 gp_uncertainty=3.6812033297380062 success=F energy=-1396.0433453032904 free_energy=-1396.0433453032904 pbc="F F F"
Pt       9.20605558       8.51850250       8.15630967       0.01953293       0.01571037      -0.08013227
Pt       7.33379962       7.60281958       9.39659169       0.05744263       0.00261093      -0.02040660
Pt       8.70319663       6.65394542       4.73187242       0.02863501       0.02956127       0.07268098
Pd       7.06443697       9.70832675      10.59105503       0.01668262      -0.02727692      -0.04180936
Pd       5.95288900       7.58446018       7.39442562       0.00152927       0.00645536       0.02022311
Ag       8.98314986       8.16459368      11.32058238      -0.00691073      -0.00746902       0.01906719
Ag       7.55309810       5.59931881       7.75448987      -0.03723094      -0.05433074       0.04127503
Ag       4.97048762       8.76593823       9.46831376      -0.06569265      -0.00429820       0.00085549
Ru      10.56688299      10.00639868       6.67213121      -0.07586308      -0.01048063       0.06364498
Ru       9.04857137      10.99380764       8.48922056       0.05381292      -0.01001220      -0.06574055
Ru       6.52268213       7.79995048       4.46335821       0.04882686       0.03843124       0.01527762
Ru      10.50054207       7.47059707       6.26985311      -0.03817414       0.01758259      -0.03701697
Ru       8.42263077       8.91062120       5.78511036      -0.00259069       0.00351594       0.01208135
13
Lattice="15.0 0.0 0.0 0.0 15.0 0.0 0.0 0.0 15.0" Properties=species:S:1:pos:R:3:forces:R:3 index=6 gp_energy=-1389.0804337592838 gp_uncertainty=3.9340565594856174 success=T energy=-1396.948546878255 free_energy=-1396.948546878255 pbc="F F F"
Pt       4.89569973       7.90066374       7.99683040      -0.00254394      -0.01030275      -0.01242531
Pt       8.78348175       8.14522620      10.61870072       0.02361976       0.00248043      -0.02958474
Pt       6.93446432       8.59797338       9.11367282       0.02423459       0.00344030      -0.00519309
Pd       7.49614370       5.18108648       4.17889306       0.01600917       0.01226272       0.01552543
Pd      10.12079421       5.86646839       7.55303478      -0.02103106      -0.03282027      -0.00996836
Ag       5.23474055       6.35241679       5.08438846      -0.00308182       0.01013957      -0.00571799
Ag       7.77150200       6.58704870       6.42361209       0.00065975      -0.00336785       0.01545119
Ag       8.25067346       9.50968062       5.97635564      -0.02002611       0.04207872      -0.00780640
Ru       6.87568353      10.68555692       7.82968298       0.00803500       0.00946815      -0.00833317
Ru       8.44819039      10.43709286       9.76961846      -0.01811171       0.00675643       0.01272095
Ru       4.42642936      10.26919436       7.59910880       0.01835277      -0.03284694      -0.00469273
Ru       5.78930035       6.51828975       9.82369667      -0.01640458      -0.00162726       0.01450587
Ru       8.13010534       6.43899691       8.97571788      -0.00971180      -0.00566125       0.02551835
13
Lattice="15.0 0.0 0.0 0.0 15.0 0.0 0.0 0.0 15.0" Properties=species:S:1:pos:R:3:forces:R:3 index=6 gp_energy=-1387.6050386405573 gp_uncertainty=4.192999999275181 success=T energy=-1395.9910386391077 free_energy=-1395.9910386391077 pbc="F F F"
Pt       7.70291274       4.59496296       8.00633967      -0.01821073       0.01043391      -0.00533272
Pt       3.32177479       6.58842452       0.88074874       0.00421592       0.00102039      -0.00009028
Pt       7.80521662       6.93432969       7.36042939       0.00528872      -0.00867454       0.01908575
Pd      10.20613698       7.15836093       7.67032057       0.02516285       0.00469883       0.00680849
Pd       8.01999938       7.06100370       4.92268440      -0.03394991      -0.02763906       0.00335853
Ag       3.59829441       5.81624403       5.61128227      -0.00859980      -0.00172479      -0.02572852
Ag       4.64423840       3.70957673       6.69805143       0.02838533       0.00757484       0.03469427
Ag       4.56046483       5.94420947       8.01123225       0.01775292      -0.01158457      -0.01619359
Ru       8.79706985       6.22126888       9.55280761      -0.00704422      -0.01566781       0.01177324
Ru       8.49110928       3.75091857      10.19848790      -0.00798590      -0.00490292      -0.00094298
Ru       9.28308991       5.29193875       6.21631146      -0.02690160       0.02614675      -0.02703168
Ru       8.92162940       8.91691146       6.37096322       0.02148142       0.01303304      -0.02961731
Ru       8.63238350       8.71321913       8.90992975       0.00040499       0.00728593       0.02921680
13
Lattice="15.0 0.0 0.0 0.0 15.0 0.0 0.0 0.0 15.0" Properties=species:S:1:pos:R:3:forces:R:3 index=6 gp_energy=-1390.8016960411258 gp_uncertainty=3.4446667777511912 success=T energy=-1397.6910295966281 free_energy=-1397.6910295966281 pbc="F F F"
Pt       8.05771389       7.08443179       6.78895613       0.00161274       0.01110985       0.02109453
Pt       9.98935318       6.00846666       5.79882627      -0.03896294      -0.00047513      -0.02015065
Pt       8.72698084       9.42611529       6.79741713       0.00323027       0.01519302       0.01477913
Pd       7.26535666       6.00003346       9.03442477      -0.01857531      -0.00110715      -0.00791950
Pd       7.77407224       5.64465958       4.85108815       0.03219989       0.01420904      -0.02936585
Ag       7.86529045       3.70966770       7.06462979       0.02302987      -0.02826118      -0.01405021
Ag       4.43492455       7.17622722       5.84438816      -0.01143433       0.00454926       0.03476065
Ag      10.29224684       7.02826535       9.14221389       0.02552564      -0.00640407       0.03282953
Ru       9.14626382       8.06265485       4.78457917       0.01089425      -0.01155427      -0.00138821
Ru       8.12729883       8.36961501       8.95482106       0.00156726       0.01924219      -0.00296583
Ru       6.15279230       5.58505969       6.79729037      -0.01690410       0.00471186       0.04004653
Ru       5.92622118       7.87001922       7.83650402      -0.02175723      -0.00682569      -0.04420992
Ru       6.74239445      10.21930071       8.08954662       0.00957397      -0.01438773      -0.02346021
13
Lattice="15.0 0.0 0.0 0.0 15.0 0.0 0.0 0.0 15.0" Properties=species:S:1:pos:R:3:forces:R:3 index=7 gp_energy=-1390.5086861527295 gp_uncertainty=3.60455538932794 success=F energy=-1397.7177969313855 free_energy=-1397.7177969313855 pbc="F F F"
Pt       6.93375096       4.76991000       5.76022183      -0.00169214      -0.03571280      -0.03860330
Pt       5.72335549       6.90965167       5.26602611       0.06699437      -0.00255442       0.01734807
Pt       6.59183342       5.29354644       9.86949628      -0.05281624       0.02669693       0.00942526
Pd       5.62852590       8.62346726       7.91233833       0.04213949      -0.07562912       0.02261611
Pd       8.78290247       6.65265358       7.00038811      -0.01659829      -0.00601824      -0.11004292
Ag      10.55938116       9.64955323      10.14652230       0.00119598       0.01648389       0.01443437
Ag       2.07774659       5.14707598       8.72591313      -0.03602254      -0.00575696       0.00661171
Ag      12.93545433       8.53311738       9.19946401       0.00546571      -0.00306747      -0.00250979
Ru       6.65948664       8.51797833       3.66291645       0.03309606      -0.05878675      -0.02615734
Ru       6.06482568       6.13685626       7.62970882      -0.01094394       0.02170055       0.07232122
Ru       7.86880073       4.38495103       8.00125904      -0.00717745       0.05924311      -0.02692819
Ru       5.15433113       9.30656085       5.50284038      -0.00347520      -0.01629206       0.02607482
Ru       8.03700562       6.52037393       4.38906729      -0.02016579       0.07969334       0.03540997
13
Lattice="15.0 0.0 0.0 0.0 15.0 0.0 0.0 0.0 15.0" Properties=species:S:1:pos:R:3:forces:R:3 index=7 gp_energy=-1390.3197371647466 gp_uncertainty=3.6482504188567977 success=F energy=-1397.6162380024602 free_energy=-1397.6162380024602 pbc="F F F"
Pt       7.49644805       6.95530803       5.15739890       0.01708279      -0.11907633      -0.00126875
Pt       9.69117138       6.24199171       8.67250205      -0.02191962       0.00038930      -0.00675053
Pt       5.93218862       7.71705824       9.35306869      -0.05218064       0.04115613       0.08171472
Pd       8.45875193      10.07572627       7.65090643       0.08091277      -0.01566918      -0.04387859
Pd       5.53438942      10.00397599       8.55628172      -0.08026903      -0.02751071       0.05714996
Ag      11.52389925       4.44412433       6.52282004      -0.02708595      -0.01294423       0.00046947
Ag       9.47819923       4.29771389       4.38974689       0.01561622       0.00478983      -0.04432043
Ag       7.68248938      10.25006011      10.42855087      -0.00553272       0.04622234       0.00509528
Ru       6.68488110       8.32484377       7.04424717       0.07735197       0.05227963      -0.00107403
Ru       5.47466709       5.34455390       8.81811943      -0.06571383      -0.09582133       0.04870515
Ru       9.16861904       7.77801967       6.79350587       0.01221660       0.03847003       0.06878507
Ru       7.61673284       6.00035722      10.01806163       0.01415195       0.04262236       0.00517171
Ru       7.53336856       5.92310713       7.44199964       0.03536950       0.04509215      -0.16979902
13
Lattice="15.0 0.0 0.0 0.0 15.0 0.0 0.0 0.0 15.0" Properties=species:S:1:pos:R:3:forces:R:3 index=7 gp_energy=-1394.5865734545746 gp_uncertainty=2.4166188621516143 success=F energy=-1399.4198111788778 free_energy=-1399.4198111788778 pbc="F F F"
Pt       6.11781056       7.60612098       6.55883873      -0.04081966       0.14402105      -0.00315889
Pt       5.45144279       9.92954948       6.29796549      -0.06590467      -0.05218623       0.07500271
Pt       7.72094686       9.58883069       7.09342977       0.04984949       0.03419111      -0.02051446
Pd       5.94278453      10.23918977      11.18160813       0.15133112      -0.05438567      -0.07261414
Pd       6.87873978       4.42269803       9.34049925       0.01276633      -0.02693093       0.02652147
Ag       8.12784384       6.61255003      10.26175271      -0.01848290      -0.05109734       0.00165080
Ag       8.69591822       7.11057406       4.83703057       0.08471843      -0.08544021       0.04704167
Ag       6.24657564       8.63698032       4.14025258       0.11139447      -0.02759148      -0.13309900
Ru       7.16293426       9.11651079       9.37414492      -0.09163853       0.08140064      -0.00651253
Ru       8.50928617       9.71863264       4.86059581      -0.13431425       0.02724438       0.04071464
Ru       7.54462908       6.14989326       7.76026231      -0.00925967      -0.00356218       0.03235655
Ru       9.83909282       6.07037906       7.13124736       0.00307264       0.02667448      -0.08887629
Ru       9.08238471       8.01309658       8.29644050      -0.05271278      -0.01233761       0.10148747
13
Lattice="15.0 0.0 0.0 0.0 15.0 0.0 0.0 0.0 15.0" Properties=species:S:1:pos:R:3:forces:R:3 index=8 gp_energy=-1390.8449529716152 gp_uncertainty=3.660961350138094 success=F energy=-1398.1668756718914 free_energy=-1398.1668756718914 pbc="F F F"
Pt       7.53100589       8.25355750       6.62955798      -0.14517632      -0.02452173       0.12300616
Pt       6.83958953       6.05456774       8.08920089      -0.09740585       0.06247371       0.00390124
Pt       7.94709382       8.21668331       9.19859541       0.02969293       0.02109211       0.01429714
Pd      10.23435826       5.49256927       7.04552002       0.07757745      -0.02459274       0.07174218
Pd       8.89953260       6.68066086       3.68532855       0.00694314      -0.00501596      -0.12324011
Ag      12.03607517      11.62252146       8.46751221      -0.00253978      -0.00666691      -0.01258648
Ag       6.72596812      10.86860049       8.08851631      -0.00075391       0.02736099       0.03066511
Ag       4.94471434       8.76878515       7.90228934      -0.02623778      -0.02168519       0.02939352
Ru       6.74909446       6.51556129      10.48193615       0.03384654      -0.09869688      -0.03913901
Ru       9.81642451       7.70023592       5.83318409       0.07396442       0.04398816      -0.02301390
Ru       8.34745215       9.30933001       4.57477682       0.14745716       0.01347556      -0.11774429
Ru      10.17816132       7.70644649       8.33413738       0.01042477       0.08080497      -0.00139302
Ru       7.97142846       5.89031051       5.92719355      -0.10779278      -0.06801609       0.04411148
13
Lattice="15.0 0.0 0.0 0.0 15.0 0.0 0.0 0.0 15.0" Properties=species:S:1:pos:R:3:forces:R:3 index=8 gp_energy=-1389.0356199540165 gp_uncertainty=4.1154324878460296 success=F energy=-1397.2664849297087 free_energy=-1397.2664849297087 pbc="F F F"
Pt       7.05259247       8.36840584       5.03094293       0.02904511      -0.11061687      -0.05614433
Pt       7.36148191       6.60475055       6.66535797       0.06195307      -0.13439177       0.02310319
Pt       9.12307462       7.24405834       8.21717831      -0.04763691      -0.08040721      -0.02117536
Pd       9.32798309       7.79775728       5.81066687       0.04897782       0.00524352       0.00480922
Pd       6.65167960       6.00615937       4.40312013      -0.01512600       0.09547641       0.04076694
Ag       6.52789441       7.31884236       8.91537068      -0.01116831       0.04879340       0.04191542
Ag       7.62823965       9.07863748       7.37371560      -0.06667408       0.06788998      -0.05741695
Ag       5.24603697       7.94069911       6.73173434      -0.07414162      -0.03090891       0.00558942
Ru       8.88434105       4.61353001       6.96903464       0.07738282       0.06675605       0.05714727
Ru       5.44747734       9.69661820       8.61772733       0.09262353      -0.09158553      -0.03209057
Ru       8.06296325       5.25248946       9.35317969      -0.02082486       0.00357220      -0.05831534
Ru       5.77987499      10.40628617       6.13886397      -0.02542616       0.02217753       0.07329097
Ru       6.38009684       4.42532424       7.56863247      -0.04898442       0.13800119      -0.02147988
13
Lattice="15.0 0.0 0.0 0.0 15.0 0.0 0.0 0.0 15.0" Properties=species:S:1:pos:R:3:forces:R:3 index=8 gp_energy=-1387.8808664247001 gp_uncertainty=3.939239959082986 success=T energy=-1395.7593463428661 free_energy=-1395.7593463428661 pbc="F F F"
Pt       8.77998720       3.56373997       7.23812672      -0.01375086       0.02463557      -0.03321409
Pt       7.19140673       8.17400406       7.29216268       0.02953311       0.02050814       0.01812098
Pt       6.74762719       6.74158671       5.39638563       0.01104635      -0.01833905       0.00816537
Pd       5.46923502      10.03009974      10.35005479      -0.01119790       0.01800838       0.00159621
Pd       7.29932073       5.62325197       9.40905732       0.02117498       0.00053661       0.01178287
Ag       7.51210498       4.37173941       5.24085805       0.00952234      -0.01478821       0.01299902
Ag       8.98340244       7.85484182       5.58159081       0.00680206      -0.00590695       0.01294970
Ag       4.99289954       6.99349087       7.16734718      -0.01498842      -0.03561950      -0.01120385
Ru       4.78624294       5.51030594       9.24302238       0.00305844       0.02710806      -0.02269366
Ru       5.56569782       8.88301614       5.54311676      -0.01122864       0.00145639       0.03190065
Ru       5.99339799       7.78029483       9.40226379       0.00144325      -0.00405409      -0.01543317
Ru       9.09326705       9.71244932       7.35758691      -0.00179639      -0.00297658      -0.00497274
Ru       8.29684656       5.92560758       7.11584701      -0.02961831      -0.01056878      -0.00999727
13
Lattice="15.0 0.0 0.0 0.0 15.0 0.0 0.0 0.0 15.0" Properties=species:S:1:pos:R:3:forces:R:3 index=9 gp_energy=-1391.5917698007997 gp_uncertainty=3.1759295053151644 success=F energy=-1397.94362881143 free_energy=-1397.94362881143 pbc="F F F"
Pt       9.23141400       5.01861792       4.24651255       0.01077271       0.01423958       0.05880315
Pt       6.33175422       4.94117533       7.13935390      -0.34760435      -0.07824698      -0.04361875
Pt       6.95658086       7.80105634      10.31531751      -0.17454126      -0.01230647      -0.08251841
Pd       8.90426315       7.45578566       4.72121324       0.22579261      -0.05210170       0.11146992
Pd       7.98829679       7.95693362       7.01742915       0.01244615       0.22764285      -0.36790040
Ag       8.71036300       5.54163337       8.98364839       0.05639725       0.02611280      -0.08503004
Ag       6.19967274       4.92720125      10.12431000       0.09413713       0.02390951       0.03158178
Ag       8.92995329       5.97835322      11.54193115      -0.11648771      -0.04514126      -0.00471106
Ru       8.04619140       9.45494010       9.02570034       0.12781282       0.14256503      -0.03316418
Ru       8.48677721       5.56127976       6.39560036       0.31019056       0.15227092       0.14014628
Ru       6.96371339       9.05296044       4.98931878      -0.00128470      -0.00774811       0.08891668
Ru       5.86413044       8.63702597       8.30847366       0.22382205      -0.27520778       0.24585108
Ru       6.52491954       6.64389120       5.38719609      -0.42145326      -0.11598839      -0.05982606
13
Lattice="15.0 0.0 0.0 0.0 15.0 0.0 0.0 0.0 15.0" Properties=species:S:1:pos:R:3:forces:R:3 index=9 gp_energy=-1390.613998106173 gp_uncertainty=3.0153204295097353 success=F energy=-1396.6446389651926 free_energy=-1396.6446389651926 pbc="F F F"
Pt       5.79354528       9.77729223       6.18964508       0.07298226       0.09068419      -0.01674154
Pt       8.05979287       5.33418118       7.65541063      -0.05814071      -0.02884180      -0.06509027
Pt       7.90776728       8.72039255       5.65030479      -0.10152384      -0.04659990       0.03786910
Pd       5.69025896       7.04515698      10.83290751      -0.08113181       0.03904408      -0.02425856
Pd       8.93301876       8.25149864       8.72919351       0.09589378       0.05816368      -0.04918985
Ag       8.07406434       6.29530895      10.26460008       0.11601268       0.01003269      -0.03408153
Ag       6.39714138       7.86533033       8.45623014      -0.17064507       0.01966998      -0.00033174
Ag       5.53211559       5.13446613       9.07725426       0.05245375      -0.03796736       0.08072039
Ru       5.81164290       7.42745701       5.95360991      -0.08819887       0.03737180      -0.03305709
Ru       6.85473560       5.22531999       5.58185610       0.12722018       0.04502593       0.04340262
Ru       8.96482285       6.56300302       5.77875972      -0.05833816      -0.05707316       0.19436015
Ru       7.43614364       8.80419191      10.62876389       0.03932704      -0.11491585      -0.02197078
Ru       7.85369703       6.28023530       3.62990672       0.05408878      -0.01459426      -0.11163090
13
Lattice="15.0 0.0 0.0 0.0 15.0 0.0 0.0 0.0 15.0" Properties=species:S:1:pos:R:3:forces:R:3 index=9 gp_energy=-1388.0633086450703 gp_uncertainty=4.261406321040876 success=F energy=-1396.586121287152 free_energy=-1396.586121287152 pbc="F F F"
Pt       7.91658123       8.90408264       5.14754632       0.09405394      -0.04267185      -0.03773463
Pt       6.92983828       8.34324415       7.25433145       0.01187072       0.04513887       0.03325828
Pt       9.65098093       7.26712654       5.50231370      -0.04282890      -0.04054041      -0.06038764
Pd       8.69194187       6.68435345       7.66911965      -0.08490046      -0.01384192       0.04119948
Pd       6.59653699       6.58276528       8.96399218      -0.10402836       0.04815742       0.00758550
Ag       9.33762501       9.07879416       7.19562031      -0.01097940      -0.01379226       0.00558234
Ag       7.25994922       6.52826884       5.58462527       0.12746338       0.04185625      -0.05921241
Ag       8.84527184       6.09613168      10.12493763       0.06935528      -0.00167400      -0.02167914
Ru       7.16041340       4.69637448       7.39250799      -0.02141857      -0.00021017      -0.04471910
Ru      10.59939308       7.65577160       8.97358305       0.00079940       0.01906603       0.03197314
Ru       8.18573910       8.48566945       9.42210785       0.01956605      -0.04264910       0.00977013
Ru       4.82650302       5.73415717       5.41892104      -0.02590727      -0.05824217       0.08099018
Ru      10.07217457      10.32336089       5.05324736      -0.03304581       0.05940329       0.01337386
13
Lattice="15.0 0.0 0.0 0.0 15.0 0.0 0.0 0.0 15.0" Properties=species:S:1:pos:R:3:forces:R:3 index=10 gp_energy=-1394.8862196178286 gp_uncertainty=2.026906384470553 success=F energy=-1398.9400323867696 free_energy=-1398.9400323867696 pbc="F F F"
Pt       7.53223080      10.02169023       5.35140035      -0.02320619      -0.00350156       0.07213048
Pt       7.94805260       7.72708584       4.73096704      -0.06745330      -0.03913553      -0.05377237
Pt       7.36825646       6.40567358       9.49916659      -0.07967563      -0.08519850      -0.01216886
Pd      11.20574280       9.88391081       6.75892456       0.06892454      -0.02944004       0.04202082
Pd       8.72462063      10.51701413       9.33596664      -0.06979754       0.08874056      -0.02176957
Ag       9.72121087       4.74485220       8.79769043      -0.00810496       0.00197083      -0.04639190
Ag       5.44735558       6.07026994       5.21683101      -0.04548162      -0.05393765       0.02709937
Ag       7.83588278       5.11347274       6.55946405       0.05736691      -0.02068731       0.02261419
Ru       6.08865765       6.66124936       7.67138631      -0.04000441      -0.00917952       0.01377525
Ru       9.29607964       8.67393532       7.78311029       0.04403493       0.01496248      -0.07039896
Ru       9.97700746       8.04459264       5.67271525       0.08135962       0.02345945      -0.00379848
Ru       6.12401375       8.37336293       6.14930071       0.00536194       0.09093056      -0.05068851
Ru       8.73296078       8.12935544       9.91758332       0.07667571       0.02101625       0.08134854
13
Lattice="15.0 0.0 0.0 0.0 15.0 0.0 0.0 0.0 15.0" Properties=species:S:1:pos:R:3:forces:R:3 index=10 gp_energy=-1385.2103498393649 gp_uncertainty=4.157766531911534 success=F energy=-1393.525882903188 free_energy=-1393.525882903188 pbc="F F F"
Pt       8.19160211       9.92544911       6.96891353      -0.00431582      -0.02089572       0.01947747
Pt       9.27241843       8.15378209       7.99207805      -0.02105622       0.00881983       0.02369834
Pt       8.97098272      10.14064859       9.13952081      -0.00680330      -0.01420406      -0.02379223
Pd       7.06485936       8.74579714       8.72181626      -0.00982827      -0.02558101       0.00396794
Pd       8.94525351       6.05892761       2.97166418       0.00331632      -0.02973942      -0.03378056
Ag       5.90600371       6.14620337       5.67644926      -0.04063150       0.05251967       0.01229794
Ag       5.48280395       3.75347082       4.76389421       0.01299303      -0.02464959      -0.02375516
Ag      12.91252672       5.51362401       7.88268747       0.03813664       0.00245698      -0.00251807
Ru       6.82045368       7.38454510      10.79599677      -0.01754612       0.03051998       0.05029740
Ru       9.47791824       2.03759838       7.16845862      -0.00467142      -0.01140483      -0.00548037
Ru      10.81220812      12.58677757       6.83346916       0.02395419       0.00594314       0.00916248
Ru       8.32979180       4.58028331       9.38951812       0.04937773      -0.00879550      -0.01662984
Ru       5.14057114      10.21966297       9.29938091      -0.02292526       0.03501052      -0.01294534
13
Lattice="15.0 0.0 0.0 0.0 15.0 0.0 0.0 0.0 15.0" Properties=species:S:1:pos:R:3:forces:R:3 index=10 gp_energy=-1389.7764016060366 gp_uncertainty=4.113959158168865 success=F energy=-1398.0043199223744 free_energy=-1398.0043199223744 pbc="F F F"
Pt       7.48593272       7.50769330       4.48437283       0.14252014       0.11774671       0.01416047
Pt       5.98446773       5.96682761       5.61414371      -0.01783375      -0.05699385       0.02795533
Pt       9.63664732       7.50518722       5.65590905      -0.02216424       0.13339195      -0.03426412
Pd       9.53799658       9.03714162      10.35658516      -0.06221721      -0.07656780      -0.02329597
Pd       9.24887531       6.48468258       8.81062545       0.04169559       0.09155684      -0.01735044
Ag       8.17773209       9.70887400       5.67381330      -0.01613520      -0.02429383      -0.01907146
Ag       8.44625803       5.28401695       5.19268444       0.01109899      -0.08915786      -0.01301887
Ag       7.52050758       7.39591477       6.99293260      -0.08117246       0.04884298       0.11803429
Ru       5.73263948       9.29642334       7.01084776       0.00985833      -0.07590016      -0.00304544
Ru       7.42363714       9.22437525       8.95653872       0.06087116      -0.02164114       0.07510078
Ru       9.70192412       8.79751740       7.83315010      -0.00832462      -0.17943588      -0.13905489
Ru       7.51260651       4.91558443       7.78177052       0.01882551       0.04950802       0.04941405
Ru       6.81868058       6.76000053       9.46218453      -0.07702227       0.08294401      -0.03556374
13
Lattice="15.0 0.0 0.0 0.0 15.0 0.0 0.0 0.0 15.0" Properties=species:S:1:pos:R:3:forces:R:3 index=10 gp_energy=-1390.3390194124536 gp_uncertainty=3.3749164102886096 success=F energy=-1397.0888522330308 free_energy=-1397.0888522330308 pbc="F F F"
Pt       8.59280663       4.43375928       6.10432166      -0.00568618       0.00451841      -0.02888792
Pt       7.20006616       4.76402859       9.49277880      -0.01559653       0.00194477       0.00517188
Pt       5.88537050       7.87726992       7.06782058      -0.00835006      -0.02699279      -0.04198102
Pd       9.60009696       6.59566834       6.69566510      -0.00055595       0.02675818      -0.01606873
Pd       6.27562728       8.30885034      11.12140920       0.00805742       0.02270239       0.04519482
Ag       8.82185586       9.01087046      10.40968548      -0.00146404      -0.00610451       0.03706435
Ag      10.80470700       7.48182180       9.00580703       0.00292137       0.00135706      -0.00003056
Ag       8.93271637       9.10717749       7.48405755      -0.01079237      -0.02539776      -0.00538986
Ru       9.28438667       4.70917191      10.46755821       0.02869476      -0.00690543      -0.01186302
Ru      10.73998154       4.37851745       7.05963712       0.03775004      -0.03905890       0.02208876
Ru       5.83702926       6.67908415       9.21020967       0.00169838       0.00621693       0.02210875
Ru       5.03390642       8.98283066       9.00538235      -0.01873171       0.01380308      -0.02206764
Ru       7.23416588       5.90535386       7.35576000      -0.01794512       0.02715857      -0.00533981
13
Lattice="15.0 0.0 0.0 0.0 15.0 0.0 0.0 0.0 15.0" Properties=species:S:1:pos:R:3:forces:R:3 index=10 gp_energy=-1385.0348122467697 gp_uncertainty=3.925884994661103 success=T energy=-1392.886582236092 free_energy=-1392.886582236092 pbc="F F F"
Pt       8.65162335      10.49411920       9.68221585      -0.00044395       0.02515539       0.00935627
Pt       5.20815677       7.51458960       7.64847945       0.02485941      -0.02017610       0.01205437
Pt      10.98081699       2.52071966       8.91690985      -0.00206707      -0.00072849      -0.01878848
Pd       7.27867099      10.07321754       5.89388018      -0.00264190      -0.00020655      -0.00140781
Pd       8.86796654       9.47386518       4.07134864       0.01607147      -0.02111304       0.03605047
Ag      13.41115388       9.25205109       3.09254593      -0.01329373      -0.00152499      -0.00331949
Ag       3.77561955       8.25730178       3.44783791       0.02777551       0.00594569      -0.00650866
Ag       8.53619554       6.01481486      10.42383483       0.00693372       0.00403181      -0.01098766
Ru       5.20925634      10.06351295      10.16050337      -0.00952250       0.01265660      -0.00911021
Ru       9.67300252       9.77421120       6.38283924      -0.02227021      -0.01336271      -0.01327848
Ru       8.25670751       5.43592197       5.03892175      -0.01642829      -0.01602901      -0.00221216
Ru       4.05219539       8.00999207      10.97072889      -0.02237405      -0.00180396       0.02440548
Ru       8.25171243       7.81295763       5.78517772       0.01340159       0.02715537      -0.01625365
13
Lattice="15.0 0.0 0.0 0.0 15.0 0.0 0.0 0.0 15.0" Properties=species:S:1:pos:R:3:forces:R:3 index=10 gp_energy=-1388.5186508852878 gp_uncertainty=4.263552503857628 success=T energy=-1397.0457558930032 free_energy=-1397.0457558930032 pbc="F F F"
Pt       8.97449335       7.36047541       8.38218033       0.00442695       0.00612709      -0.01802266
Pt       6.71377833       8.22427140       8.57379405       0.00053458      -0.01027153       0.00354407
Pt       7.07208960       6.01177431       7.69725824       0.02845622       0.01444685       0.01655527
Pd       7.48854719       6.44057875      10.08210198      -0.00224815      -0.01594146      -0.00507379
Pd       5.17340245       6.40879440       9.20063811       0.00755792       0.02308251      -0.00298593
Ag       7.74276843       7.98162380       6.29147355       0.02227428      -0.00956301      -0.01852291
Ag       6.14102489      10.21660932       7.16183934      -0.00323093       0.03067118       0.00050043
Ag       9.35588411       5.39325742       6.86469411      -0.01617287      -0.02526370      -0.01100748
Ru       5.17897293       7.88623668       6.58657838      -0.00414877       0.00149053      -0.00734425
Ru      11.12133085       7.70952717       9.62098322      -0.00784860       0.01826260       0.02364743
Ru       5.35125692      10.05940708       9.61847371      -0.01399682      -0.00306035       0.03505168
Ru       8.57852974       9.80892922       7.92773258      -0.01477887      -0.01962212      -0.01639174
Ru       7.37436511       5.65327719       5.22699209      -0.00082496      -0.01035860       0.00004987
13
Lattice="15.0 0.0 0.0 0.0 15.0 0.0 0.0 0.0 15.0" Properties=species:S:1:pos:R:3:forces:R:3 index=10 gp_energy=-1393.0257734587794 gp_uncertainty=2.619185759385486 success=T energy=-1398.2641449775504 free_energy=-1398.2641449775504 pbc="F F F"
Pt      10.51967581       6.51190932       7.36814459      -0.00671673      -0.00334587      -0.01064504
Pt       8.51648812       6.05160976       6.09091190      -0.00330563       0.02151908       0.00714361
Pt       9.35626614       8.30623600       6.27822787      -0.01476235      -0.03230249       0.00167227
Pd       6.80952898       5.27770498       9.56124850      -0.00867208      -0.02708211       0.00533410
Pd       5.54637974       8.38937515       7.88183026      -0.02174270      -0.00719830      -0.01634062
Ag       7.47215455       4.26430119       3.98202616       0.01635777      -0.02171191       0.01835747
Ag       8.31238535       7.47494067       9.07776032       0.01933482       0.00985767       0.01026766
Ag       7.01569757       9.94884239       9.46075909       0.00727806      -0.03239863      -0.00118615
Ru       8.86461587       5.09697922       8.19592917       0.00291845       0.01505488      -0.01311645
Ru       5.30251210       5.89722460       7.70046590       0.01125682       0.02555899      -0.00606816
Ru       4.01471462       7.26001864       6.24007408       0.03853430       0.00569714      -0.00618049
Ru       7.16978092       9.03145884       6.07453947      -0.01414827       0.03120943      -0.01439879
Ru       6.32031379       6.84182933       5.73875082      -0.02633247       0.01514214       0.02516059
13
Lattice="15.0 0.0 0.0 0.0 15.0 0.0 0.0 0.0 15.0" Properties=species:S:1:pos:R:3:forces:R:3 index=10 gp_energy=-1390.3550522983003 gp_uncertainty=3.202670956552369 success=T energy=-1396.7603942114051 free_energy=-1396.7603942114051 pbc="F F F"
Pt       6.79467011       5.86751095       4.76871083      -0.01180531      -0.02203868      -0.00181911
Pt       8.30870745       6.06182381       7.68636601      -0.00193218       0.01847579       0.00192630
Pt       8.85214266      10.08454888       7.03286115       0.00682684      -0.01936837      -0.00478772
Pd       4.62645923       4.62724251       8.23478200       0.02646903       0.00505982       0.00244036
Pd       8.23052079       4.44169527      10.23889903      -0.00759837      -0.01001429       0.01238553
Ag       4.51505447       7.42017509       8.80231141       0.01556873       0.00251342       0.00166747
Ag      10.36882605       8.99292030      10.08206680      -0.00474606       0.01184465       0.02776593
Ag       5.12619615       8.45636919       5.82199129       0.02244802      -0.01726489       0.01841827
Ru       9.56459065       8.03584221       7.91298824      -0.00440541       0.01409928      -0.02628105
Ru       7.58731912       8.09966056       6.44722549      -0.01390419      -0.00609163      -0.00506655
Ru       8.32599784       4.51809140       5.89622222      -0.00110015      -0.02204626      -0.01736141
Ru       6.51058058       5.92993191       9.20495826      -0.02488543      -0.00358273      -0.01576564
Ru       6.78096376      10.36957751       5.98335431      -0.00093551       0.04841389       0.00647762
13
Lattice="15.0 0.0 0.0 0.0 15.0 0.0 0.0 0.0 15.0" Properties=species:S:1:pos:R:3:forces:R:3 index=10 gp_energy=-1389.7925470644288 gp_uncertainty=3.9763549805217053 success=T energy=-1397.7452570254723 free_energy=-1397.7452570254723 pbc="F F F"
Pt       5.71887905       9.78838658       8.10467865      -0.02267007       0.00640854       0.00424218
Pt       6.39554022       8.23758013       9.85947065       0.00306690       0.03374471       0.01197938
Pt       5.62612363      10.46785328      10.42466395       0.01104964       0.00900113       0.02629379
Pd       7.93074333       5.43238622       8.32387012      -0.00258630       0.00518660      -0.04059865
Pd       4.47522542       4.07399140       6.43425995       0.03064751      -0.00075644       0.01444932
Ag       8.16890528       9.66786732       8.72672222      -0.03354067      -0.02099191      -0.00365877
Ag       9.42524319       7.85924583       5.06453924       0.01178382      -0.01399493       0.00615887
Ag       6.05464459       8.89376676       5.76843480      -0.00956336       0.02140005       0.00131864
Ru      10.24871665       8.77478932       7.36343020       0.00393066      -0.02082427       0.01091327
Ru       9.28157735       7.34963411       9.27689394      -0.00334560      -0.01705968       0.01756278
Ru       9.99829194       6.21556027       7.06688396       0.01031378       0.01556784       0.00632751
Ru       8.37416260       9.99912302       6.13893759       0.00776707       0.00149685      -0.02755601
Ru       7.88178996       7.65979164       7.12955857      -0.00685336      -0.01917847      -0.02743231
13
Lattice="15.0 0.0 0.0 0.0 15.0 0.0 0.0 0.0 15.0" Properties=species:S:1:pos:R:3:forces:R:3 index=10 gp_energy=-1389.2249442734565 gp_uncertainty=4.161299183824596 success=T energy=-1397.5475426411056 free_energy=-1397.5475426411056 pbc="F F F"
Pt       5.07447728       8.85086683       9.69127560      -0.01526871      -0.01598183      -0.02147269
Pt       7.22493411       7.80006142       9.98872292       0.00877272      -0.00893115       0.02320617
Pt       6.79289619       9.11715423       8.01010362      -0.00759413       0.02675514      -0.01001175
Pd       5.57616117      11.11161176       8.85502221       0.02784684       0.01427091      -0.00518362
Pd       8.60814331       7.44543891       7.97414488      -0.01501953      -0.01555873       0.02290317
Ag       5.66082198       6.85826453       8.24598644       0.00388331      -0.00437112       0.01284255
Ag       6.55283762       7.69592889       5.94080761       0.00525551      -0.01192195       0.01064162
Ag       7.45899283       5.33448035       9.54004530       0.01643399      -0.00355073       0.00234268
Ru       7.41822687       5.44781757       6.93960676       0.00314137      -0.00594086       0.02145399
Ru       4.99454725       5.60628201       6.05950228      -0.01430757      -0.00391541      -0.00556313
Ru       8.99518551       6.88996365       5.50529403       0.00177672       0.01614799      -0.01164118
Ru       8.57439745       9.31784280       6.23938781      -0.00638156       0.02088315      -0.02192739
Ru       5.50138652       4.25723253       8.20031619      -0.00853895      -0.00788542      -0.01759041
13
Lattice="15.0 0.0 0.0 0.0 15.0 0.0 0.0 0.0 15.0" Properties=species:S:1:pos:R:3:forces:R:3 index=10 gp_energy=-1390.530419360142 gp_uncertainty=3.381681341361596 success=F energy=-1397.2937820428654 free_energy=-1397.2937820428654 pbc="F F F"
Pt       9.93818893       6.30012907      10.65968334      -0.01523921       0.00944455      -0.07435332
Pt       8.18654543       9.93631473       9.05682726      -0.02682714       0.01904589      -0.02877222
Pt       7.61550966       6.26104974       7.28370186      -0.01500744      -0.01775431      -0.00494672
Pd       4.40056921       8.01130112       8.79137621      -0.00099579       0.02470711      -0.00446496
Pd       4.05350854       4.55497789       7.63693965       0.04101339      -0.01963147      -0.01876102
Ag      10.54923390       4.49772614       6.48769642      -0.00406889       0.00682772       0.01186536
Ag       5.30468928       5.61492734       9.91077768      -0.01758866      -0.00469881       0.00904902
Ag      10.26065466       3.03527197       9.20742708      -0.02849653       0.01148229      -0.00917419
Ru       7.13265473      10.74526126       7.06122534       0.00071960      -0.03491297       0.05412416
Ru       6.69274902       8.44964022       7.82464510      -0.00119810       0.02853366      -0.03356949
Ru       6.24472149       4.60006216       6.37817411      -0.00769077       0.02002494       0.03056574
Ru       8.63499547       7.57796248       9.08853010       0.06068657      -0.06288429       0.02033467
Ru       9.39234413       5.30095698       8.57420277       0.01469296       0.01981570       0.04810299
13
Lattice="15.0 0.0 0.0 0.0 15.0 0.0 0.0 0.0 15.0" Properties=species:S:1:pos:R:3:forces:R:3 index=10 gp_energy=-1389.9395191730912 gp_uncertainty=3.6839936819080155 success=T energy=-1397.307506536907 free_energy=-1397.307506536907 pbc="F F F"
Pt       8.53910528       9.53087470       6.85529657       0.01426564       0.00201615      -0.03068660
Pt       7.74971535      10.59709678      10.89821629       0.00032520       0.00780049       0.02663974
Pt       8.21529531       7.45917512       8.07688226       0.00947246       0.01909120       0.00750360
Pd       8.67841021       7.39717690       5.64866736       0.00187454       0.00939331      -0.02504293
Pd      10.48147924       8.00928632       7.32339918      -0.00048812      -0.00352422       0.01359470
Ag       4.15190047       8.21761666       6.15924622       0.00143255       0.00728047       0.02309688
Ag       9.28132223       3.13661538       7.87784262       0.02285812      -0.01683708       0.00021540
Ag      10.73731611       5.57733307       9.17108857       0.00971750      -0.01200843       0.00100423
Ru       6.95515194      10.32605093       8.57162965       0.00072618      -0.00835797      -0.02662388
Ru       7.10248424       8.33775302      10.10740304       0.00258257       0.00535173      -0.02557357
Ru       6.50279874       6.10550935       9.14337893      -0.04086861       0.00045518      -0.00236268
Ru       9.18865462       9.44571994       9.24629263      -0.00985508       0.00290601       0.01136655
Ru       7.95283393       9.82786441       4.53022029      -0.01204296      -0.01356682       0.02686856
13
Lattice="15.0 0.0 0.0 0.0 15.0 0.0 0.0 0.0 15.0" Properties=species:S:1:pos:R:3:forces:R:3 index=10 gp_energy=-1388.1275923338037 gp_uncertainty=4.232978352270991 success=F energy=-1396.5935490383456 free_energy=-1396.5935490383456 pbc="F F F"
Pt       8.47092764       5.96823719       6.85910102      -0.51149600      -0.00569811       0.09783684
Pt       5.51557675       6.32353907       9.29392116       0.16378521       0.11260519      -0.02434708
Pt       6.99893886       8.86913617       6.71449747       0.22352689      -0.12859642      -0.03719003
Pd       6.93321271       4.66682156       5.46667981       0.06181965       0.04560344       0.15935235
Pd       7.62311642       7.42056502       8.63107452      -0.09615285       0.04789619      -0.00495069
Ag       7.36172192       4.74713672       8.73275099      -0.09295423       0.18964637      -0.28658253
Ag       7.49921129       7.19663187       4.92249705       0.33836419       0.18552020      -0.48818305
Ag       6.02048450       6.57094799       6.87034893      -0.29019346      -0.29874961       0.50349725
Ru       9.42851440       8.25688342       6.82451670      -0.00975626       0.13508330       0.01565511
Ru       8.45493888      10.17801724       8.25446865      -0.06618822      -0.02131389      -0.01360944
Ru      10.63029258       4.92185246       6.36182712       0.25131240      -0.08493611      -0.06065600
Ru       5.20709841       8.61550444       8.39922486      -0.06474687      -0.05419921       0.06360301
Ru       5.61425202      10.88773087       6.26002183       0.09267956      -0.12286135       0.07557426
13
Lattice="15.0 0.0 0.0 0.0 15.0 0.0 0.0 0.0 15.0" Properties=species:S:1:pos:R:3:forces:R:3 index=10 gp_energy=-1387.7924149493679 gp_uncertainty=3.810432113740938 success=T energy=-1395.4132791768498 free_energy=-1395.4132791768498 pbc="F F F"
Pt       9.55409256       6.86336903       5.58586412      -0.01478236       0.00590947      -0.02383281
Pt       8.79364221       5.84535282       7.61244604       0.00391563       0.00684047       0.01410464
Pt       5.98995611      10.71350751       8.00667373      -0.00909387       0.02656679      -0.00146039
Pd       5.93161982       7.40445895       8.18626222       0.01086194       0.03334512      -0.00895818
Pd       6.36760166       6.87832747       5.77716491      -0.01894867      -0.01527353       0.00149211
Ag       5.15914884       8.99938624       6.38142039       0.01032316       0.00056619       0.00267524
Ag       7.90329874       8.30977654       4.35574371       0.02571916      -0.00960369       0.00143916
Ag       7.19104817       5.66040874       9.52680198       0.01131098      -0.00281276       0.01773265
Ru       7.68397352       8.60898057       6.93004302      -0.02572663       0.01592764       0.02096554
Ru       5.52995766       8.76912052      10.19975198      -0.01124693      -0.00329944       0.00439172
Ru       7.91341135       8.16846876       9.46595790      -0.02209678      -0.03790204       0.00380347
Ru       5.78488995       5.10850564       7.40270526       0.02286398      -0.00674137      -0.01067093
Ru       7.96152265      10.63170653      10.12703664       0.01690040      -0.01352283      -0.02168223
