168
Lattice="16.6311514935076 0.0 0.0 0.0 19.203999583420114 0.0 0.0 0.0 24.526426110446664" Properties=species:S:1:pos:R:3:tags:I:1 pbc="T T F"
Pt       1.38592929       0.80016665       6.00000000        3
Pt       4.15778787       0.80016665       6.00000000        3
Pt       0.00000000       3.20066660       6.00000000        3
Pt       2.77185858       3.20066660       6.00000000        3
Pt       0.00000000       1.60033330       8.26321306        2
Pt       2.77185858       1.60033330       8.26321306        2
Pt       1.38592929       4.00083325       8.26321306        2
Pt       4.15778787       4.00083325       8.26321306        2
Pt       0.00000000       0.00000000      10.52642611        1
Pt       2.77185858       0.00000000      10.52642611        1
Pt       1.38592929       2.40049995      10.52642611        1
Pt       4.15778787       2.40049995      10.52642611        1
O        0.00000000       0.00000000      12.42642611        0
H        0.70000000       0.00000000      13.12642611        0
Pt       1.38592929       5.60116655       6.00000000        3
Pt       4.15778787       5.60116655       6.00000000        3
Pt       0.00000000       8.00166649       6.00000000        3
Pt       2.77185858       8.00166649       6.00000000        3
Pt       0.00000000       6.40133319       8.26321306        2
Pt       2.77185858       6.40133319       8.26321306        2
Pt       1.38592929       8.80183314       8.26321306        2
Pt       4.15778787       8.80183314       8.26321306        2
Pt       0.00000000       4.80099990      10.52642611        1
Pt       2.77185858       4.80099990      10.52642611        1
Pt       1.38592929       7.20149984      10.52642611        1
Pt       4.15778787       7.20149984      10.52642611        1
O        0.00000000       4.80099990      12.42642611        0
H        0.70000000       4.80099990      13.12642611        0
Pt       1.38592929      10.40216644       6.00000000        3
Pt       4.15778787      10.40216644       6.00000000        3
Pt       0.00000000      12.80266639       6.00000000        3
Pt       2.77185858      12.80266639       6.00000000        3
Pt       0.00000000      11.20233309       8.26321306        2
Pt       2.77185858      11.20233309       8.26321306        2
Pt       1.38592929      13.60283304       8.26321306        2
Pt       4.15778787      13.60283304       8.26321306        2
Pt       0.00000000       9.60199979      10.52642611        1
Pt       2.77185858       9.60199979      10.52642611        1
Pt       1.38592929      12.00249974      10.52642611        1
Pt       4.15778787      12.00249974      10.52642611        1
O        0.00000000       9.60199979      12.42642611        0
H        0.70000000       9.60199979      13.12642611        0
Pt       1.38592929      15.20316634       6.00000000        3
Pt       4.15778787      15.20316634       6.00000000        3
Pt       0.00000000      17.60366628       6.00000000        3
Pt       2.77185858      17.60366628       6.00000000        3
Pt       0.00000000      16.00333299       8.26321306        2
Pt       2.77185858      16.00333299       8.26321306        2
Pt       1.38592929      18.40383293       8.26321306        2
Pt       4.15778787      18.40383293       8.26321306        2
Pt       0.00000000      14.40299969      10.52642611        1
Pt       2.77185858      14.40299969      10.52642611        1
Pt       1.38592929      16.80349964      10.52642611        1
Pt       4.15778787      16.80349964      10.52642611        1
O        0.00000000      14.40299969      12.42642611        0
H        0.70000000      14.40299969      13.12642611        0
Pt       6.92964646       0.80016665       6.00000000        3
Pt       9.70150504       0.80016665       6.00000000        3
Pt       5.54371716       3.20066660       6.00000000        3
Pt       8.31557575       3.20066660       6.00000000        3
Pt       5.54371716       1.60033330       8.26321306        2
Pt       8.31557575       1.60033330       8.26321306        2
Pt       6.92964646       4.00083325       8.26321306        2
Pt       9.70150504       4.00083325       8.26321306        2
Pt       5.54371716       0.00000000      10.52642611        1
Pt       8.31557575       0.00000000      10.52642611        1
Pt       6.92964646       2.40049995      10.52642611        1
Pt       9.70150504       2.40049995      10.52642611        1
O        5.54371716       0.00000000      12.42642611        0
H        6.24371716       0.00000000      13.12642611        0
Pt       6.92964646       5.60116655       6.00000000        3
Pt       9.70150504       5.60116655       6.00000000        3
Pt       5.54371716       8.00166649       6.00000000        3
Pt       8.31557575       8.00166649       6.00000000        3
Pt       5.54371716       6.40133319       8.26321306        2
Pt       8.31557575       6.40133319       8.26321306        2
Pt       6.92964646       8.80183314       8.26321306        2
Pt       9.70150504       8.80183314       8.26321306        2
Pt       5.54371716       4.80099990      10.52642611        1
Pt       8.31557575       4.80099990      10.52642611        1
Pt       6.92964646       7.20149984      10.52642611        1
Pt       9.70150504       7.20149984      10.52642611        1
O        5.54371716       4.80099990      12.42642611        0
H        6.24371716       4.80099990      13.12642611        0
Pt       6.92964646      10.40216644       6.00000000        3
Pt       9.70150504      10.40216644       6.00000000        3
Pt       5.54371716      12.80266639       6.00000000        3
Pt       8.31557575      12.80266639       6.00000000        3
Pt       5.54371716      11.20233309       8.26321306        2
Pt       8.31557575      11.20233309       8.26321306        2
Pt       6.92964646      13.60283304       8.26321306        2
Pt       9.70150504      13.60283304       8.26321306        2
Pt       5.54371716       9.60199979      10.52642611        1
Pt       8.31557575       9.60199979      10.52642611        1
Pt       6.92964646      12.00249974      10.52642611        1
Pt       9.70150504      12.00249974      10.52642611        1
O        5.54371716       9.60199979      12.42642611        0
H        6.24371716       9.60199979      13.12642611        0
Pt       6.92964646      15.20316634       6.00000000        3
Pt       9.70150504      15.20316634       6.00000000        3
Pt       5.54371716      17.60366628       6.00000000        3
Pt       8.31557575      17.60366628       6.00000000        3
Pt       5.54371716      16.00333299       8.26321306        2
Pt       8.31557575      16.00333299       8.26321306        2
Pt       6.92964646      18.40383293       8.26321306        2
Pt       9.70150504      18.40383293       8.26321306        2
Pt       5.54371716      14.40299969      10.52642611        1
Pt       8.31557575      14.40299969      10.52642611        1
Pt       6.92964646      16.80349964      10.52642611        1
Pt       9.70150504      16.80349964      10.52642611        1
O        5.54371716      14.40299969      12.42642611        0
H        6.24371716      14.40299969      13.12642611        0
Pt      12.47336362       0.80016665       6.00000000        3
Pt      15.24522220       0.80016665       6.00000000        3
Pt      11.08743433       3.20066660       6.00000000        3
Pt      13.85929291       3.20066660       6.00000000        3
Pt      11.08743433       1.60033330       8.26321306        2
Pt      13.85929291       1.60033330       8.26321306        2
Pt      12.47336362       4.00083325       8.26321306        2
Pt      15.24522220       4.00083325       8.26321306        2
Pt      11.08743433       0.00000000      10.52642611        1
Pt      13.85929291       0.00000000      10.52642611        1
Pt      12.47336362       2.40049995      10.52642611        1
Pt      15.24522220       2.40049995      10.52642611        1
O       11.08743433       0.00000000      12.42642611        0
H       11.78743433       0.00000000      13.12642611        0
Pt      12.47336362       5.60116655       6.00000000        3
Pt      15.24522220       5.60116655       6.00000000        3
Pt      11.08743433       8.00166649       6.00000000        3
Pt      13.85929291       8.00166649       6.00000000        3
Pt      11.08743433       6.40133319       8.26321306        2
Pt      13.85929291       6.40133319       8.26321306        2
Pt      12.47336362       8.80183314       8.26321306        2
Pt      15.24522220       8.80183314       8.26321306        2
Pt      11.08743433       4.80099990      10.52642611        1
Pt      13.85929291       4.80099990      10.52642611        1
Pt      12.47336362       7.20149984      10.52642611        1
Pt      15.24522220       7.20149984      10.52642611        1
O       11.08743433       4.80099990      12.42642611        0
H       11.78743433       4.80099990      13.12642611        0
Pt      12.47336362      10.40216644       6.00000000        3
Pt      15.24522220      10.40216644       6.00000000        3
Pt      11.08743433      12.80266639       6.00000000        3
Pt      13.85929291      12.80266639       6.00000000        3
Pt      11.08743433      11.20233309       8.26321306        2
Pt      13.85929291      11.20233309       8.26321306        2
Pt      12.47336362      13.60283304       8.26321306        2
Pt      15.24522220      13.60283304       8.26321306        2
Pt      11.08743433       9.60199979      10.52642611        1
Pt      13.85929291       9.60199979      10.52642611        1
Pt      12.47336362      12.00249974      10.52642611        1
Pt      15.24522220      12.00249974      10.52642611        1
O       11.08743433       9.60199979      12.42642611        0
H       11.78743433       9.60199979      13.12642611        0
Pt      12.47336362      15.20316634       6.00000000        3
Pt      15.24522220      15.20316634       6.00000000        3
Pt      11.08743433      17.60366628       6.00000000        3
Pt      13.85929291      17.60366628       6.00000000        3
Pt      11.08743433      16.00333299       8.26321306        2
Pt      13.85929291      16.00333299       8.26321306        2
Pt      12.47336362      18.40383293       8.26321306        2
Pt      15.24522220      18.40383293       8.26321306        2
Pt      11.08743433      14.40299969      10.52642611        1
Pt      13.85929291      14.40299969      10.52642611        1
Pt      12.47336362      16.80349964      10.52642611        1
Pt      15.24522220      16.80349964      10.52642611        1
O       11.08743433      14.40299969      12.42642611        0
H       11.78743433      14.40299969      13.12642611        0
