14
Lattice="5.5437171645025325 0.0 0.0 0.0 4.800999895855028 0.0 0.0 0.0 24.526426110446664" Properties=species:S:1:pos:R:3:tags:I:1 pbc="T T F"
Pt       1.38592929       0.80016665       6.00000000        3
Pt       4.15778787       0.80016665       6.00000000        3
Pt       0.00000000       3.20066660       6.00000000        3
Pt       2.77185858       3.20066660       6.00000000        3
Pt       0.00000000       1.60033330       8.26321306        2
Pt       2.77185858       1.60033330       8.26321306        2
Pt       1.38592929       4.00083325       8.26321306        2
Pt       4.15778787       4.00083325       8.26321306        2
Pt       0.00000000       0.00000000      10.52642611        1
Pt       2.77185858       0.00000000      10.52642611        1
Pt       1.38592929       2.40049995      10.52642611        1
Pt       4.15778787       2.40049995      10.52642611        1
O        0.00000000       0.00000000      12.42642611        0
H        0.70000000       0.00000000      13.12642611        0
