17
Lattice="7.0 0.0 0.0 3.5 6.06217782649107 0.0 0.0 0.0 15.0" Properties=species:S:1:pos:R:3:initial_charges:R:1:forces:R:3:charge:R:1 energy=-1310.6626249257986 free_energy=-1310.6626249257986 dipole="-1.258855520085983 -2.4151368119408723 -5.333440988290172" stress="-0.004130472750317249 0.0011389567438056757 2.023902170441108e-05 0.0011389567438056757 0.0016211348052904682 -4.1281262355825446e-05 2.023902170441108e-05 -4.1281262355825446e-05 0.0024904542199476938" pbc="T T F"
N        1.92231210       1.23977945       3.58207587      -0.15000000       0.00482835      -0.00191121      -0.00791908      -0.28648133
N        3.12225726      -0.71287329       3.89225863      -0.50000000       0.00060688      -0.01168253       0.00965432      -0.43152453
N        4.26976313       1.26853211       3.18387854      -0.66000000       0.01179543      -0.00542079       0.00374915      -0.41404740
N        0.81269035      -0.79958646       3.79610528      -0.66000000      -0.01120667       0.00196768      -0.01263884      -0.43135282
N       -0.32163085       1.22173356       4.13704981      -0.66000000      -0.00823009       0.00785487       0.01507246      -0.40571013
N        2.98834368       3.28753490       3.15711104      -0.66000000       0.00107967      -0.00204851       0.01507565      -0.47059187
N        0.85499014       3.23124375       4.14473269      -0.66000000       0.00202936      -0.01156351       0.01212650      -0.43780409
N       -1.53213767      -0.75404081       3.76148945      -0.85000000      -0.00026454       0.00454188      -0.01023245      -0.23065782
C        1.97097151      -0.13127518       3.77088564       0.55000000      -0.01386405      -0.01196109      -0.00810100       0.42692673
C        3.12537365       1.95802218       3.48085128       0.71000000       0.00897511       0.00036449      -0.00082719       0.40515090
C        0.79790754       1.92455307       3.97541470       0.71000000       0.00896860      -0.01283290      -0.00507415       0.43637142
C        4.26035669       0.03051067       3.80222399       0.55000000       0.01091141       0.00799949       0.00347275       0.38937660
C       -0.30300881      -0.09809803       3.86986071       0.71000000      -0.01124590       0.01289717      -0.00607220       0.42823123
C        1.94357244       3.88826626       3.68534480       0.87000000       0.00655510       0.00560851      -0.00407979       0.42565981
Pt       4.31927475       1.66140656       5.16123454       0.00000000      -0.01828426       0.01389825       0.00537876       0.07984589
O        4.29208503       2.08016158       7.13475911       0.00000000       0.00302276       0.00230289      -0.00434259      -0.74631392
H        4.99848423       2.69946942       7.30145025       0.00000000       0.00432284      -0.00001468      -0.00524231       0.26292133
