17
Lattice="7.063012962610219 0.0 0.0 3.5315064813051094 6.116748652879239 0.0 0.0 0.0 15.0" Properties=species:S:1:pos:R:3:move_mask:L:1:initial_charges:R:1:forces:R:3:charge:R:1 energy=-1306.3337371804448 free_energy=-1306.3337371804448 dipole="-1.3130729284978813 -0.4073386431430157 -5.322782884889303" stress="-0.008996030473186456 0.00016898040791446872 -7.135910393474215e-05 0.00016898040791446872 -0.022868805681438533 -2.5125357477632054e-05 -7.135910393474215e-05 -2.5125357477632054e-05 0.002857271932230249" pbc="T T F"
N        1.77356606       0.99329253       4.00030000  F      -0.15000000      -0.40991229       0.13269973      -0.11652486      -0.28337674
N        2.98539236      -0.95913423       4.00020000  F      -0.50000000      -0.21635164       1.80758986      -0.29881299      -0.43491645
N        4.21279747       1.07503941       4.00020000  F      -0.66000000      -3.76601318      -0.42391146      -0.49673213      -0.38051921
N        0.59585445      -1.05880891       4.00030000  F      -0.66000000      -1.64143896       2.76460038      -0.33139023      -0.37345429
N       -0.61980540       0.99850958       4.00010000  F      -0.66000000       3.56305015      -0.00481924      -0.40717327      -0.40520431
N        2.99511097       3.01963176       4.00020000  F      -0.66000000      -3.86040688      -1.05054392      -0.32009232      -0.33483418
N        0.51984700       2.99217074       4.00010000  F      -0.66000000       2.60263124      -0.79552522      -0.24649719      -0.33223741
N       -1.76575324      -1.01945811       4.00000000  F      -0.85000000       0.59171262      -1.39601371      -0.06037082      -0.19252690
C        1.72011583      -0.39958364       4.00040000  F       0.55000000       3.53204996       2.11255692       0.25678905       0.39876563
C        2.97974734       1.71306770       4.00030000  F       0.71000000       0.08905044      -1.06007469       0.25080723       0.38053782
C        0.57231925       1.68891621       4.00030000  F       0.71000000      -0.27697612      -0.84441652       0.23307670       0.39864693
C        4.17197457      -0.23724091       4.00020000  F       0.55000000      -3.85370169      -1.62215209       0.18172875       0.39918914
C       -0.58411754      -0.31686329       4.00030000  F       0.71000000       2.40945673      -1.60380426       0.14372421       0.38086849
C        1.75055654       3.63188116       4.00030000  F       0.87000000       0.58420809       1.42719100       0.17546470       0.30154778
Pt       5.29725972       3.05837433       4.00000000  F       0.00000000       0.63177663       0.54997943       1.01770585       0.00936407
O        5.33341766       3.43719719       6.20472427  T       0.00000000       0.00195727       0.00560062       0.02731888      -0.77535005
H        5.35509173       4.39346056       6.21535277  T       0.00000000       0.01890763       0.00104316      -0.00902156       0.24349968
